benchmarks_vrp/CMT2/fixed_c_size/CMT2_3.vrp
NAME: CMT2_3
TYPE: CVRP
COMMENT: 835.26 - Cluster Nr.3
DIMENSION: 15
CAPACITY: 140
EDGE_WEIGHT_TYPE: EUC_2D
NODE_COORD_TYPE: TWOD_COORDS
NODE_COORD_SECTION: 
5 17 64
9 30 50
3 22 53
12 15 56
15 26 59
10 21 36
1 21 48
6 29 39
4 10 70
14 21 45
8 12 38
11 7 43
13 33 44
7 9 56
2 40 40
DEPOT_SECTION: 
2
-1
DEMAND_SECTION: 
1 17
2 0
11 27
7 13
9 33
6 12
13 20
14 11
8 5
3 28
12 22
10 19
4 7
15 29
5 14
EOF
