benchmarks_vrp/CMT2/fixed_c_size/CMT2_3.tour
NAME: CMT2_3 solution
TYPE: TOUR
TOUR_SECTION:
2 6 14 1 3 9 13 -1
2 15 5 4 12 7 11 8 10 -1
-1
EOF